NAME 
ROWS
 N  OBJ
 L  R0      
 E  R1      
 E  R2      
 E  R3      
 E  R4      
 E  R5      
 E  R6      
 E  R7      
 E  R8      
 E  R9      
 E  R10     
COLUMNS
    MARKER    'MARKER'                 'INTORG'
    I0(6)     OBJ       -117
    I0(6)     R0        157
    I0(6)     R1        19
    I0(6)     R2        -1
    I0(6)     R3        1
    I0(6)     R4        13
    I0(6)     R10       1
    I1(7)     OBJ       -15
    I1(7)     R0        -170
    I1(7)     R1        12
    I1(7)     R2        8
    I1(7)     R3        -1
    I1(7)     R4        13
    I1(7)     R5        15
    I1(7)     R10       1
    I2(6)     OBJ       31
    I2(6)     R0        -83
    I2(6)     R2        14
    I2(6)     R3        13
    I2(6)     R4        11
    I2(6)     R5        17
    I2(6)     R10       1
    I3(6)     OBJ       -200
    I3(6)     R0        -77
    I3(6)     R1        12
    I3(6)     R2        18
    I3(6)     R3        4
    I3(6)     R4        10
    I3(6)     R10       1
    I4(7)     OBJ       -22
    I4(7)     R0        95
    I4(7)     R1        9
    I4(7)     R2        8
    I4(7)     R3        7
    I4(7)     R4        18
    I4(7)     R5        14
    I4(7)     R10       1
    MARKER    'MARKER'                 'INTEND'
    C5(9)     OBJ       3
    C5(9)     R0        -6
    C5(9)     R2        7
    C5(9)     R3        8
    C5(9)     R4        10
    C5(9)     R5        -1
    C5(9)     R6        18
    C5(9)     R7        5
    C5(9)     R8        3
    C5(9)     R9        6
    C6(7)     OBJ       -2
    C6(7)     R0        4
    C6(7)     R1        2
    C6(7)     R2        18
    C6(7)     R4        13
    C6(7)     R5        4
    C6(7)     R6        8
    C6(7)     R9        10
    C7(7)     OBJ       -9
    C7(7)     R0        -6
    C7(7)     R2        7
    C7(7)     R3        6
    C7(7)     R5        10
    C7(7)     R6        1
    C7(7)     R8        7
    C7(7)     R9        11
    C8(8)     OBJ       9
    C8(8)     R0        -5
    C8(8)     R1        4
    C8(8)     R2        4
    C8(8)     R3        9
    C8(8)     R4        18
    C8(8)     R6        13
    C8(8)     R7        14
    C8(8)     R9        19
    C9(7)     OBJ       8
    C9(7)     R0        -3
    C9(7)     R2        12
    C9(7)     R4        13
    C9(7)     R5        2
    C9(7)     R6        1
    C9(7)     R7        1
    C9(7)     R8        15
    C10(1)    R1        1
    C11(1)    R2        1
    C12(1)    R3        1
    C13(1)    R4        1
    C14(1)    R5        1
    C15(1)    R6        1
    C16(1)    R7        1
    C17(1)    R8        1
    C18(1)    R9        1
    C19(1)    R10       1
RHS
    RHS1      R0        -1.0809090909090909e+02
    RHS1      R1        89
    RHS1      R2        64
    RHS1      R3        68
    RHS1      R4        63
    RHS1      R5        78
    RHS1      R6        97
    RHS1      R7        89
    RHS1      R8        54
    RHS1      R9        57
    RHS1      R10       1
BOUNDS
 UP BND1      I0(6)     2
 UP BND1      I1(7)     2
 UP BND1      I2(6)     2
 UP BND1      I3(6)     2
 UP BND1      I4(7)     2
ENDATA
